400,39
602,197
276,931
430,769
734,449
341,849
482,614
405,123
870,454
737,389
190,253
655,82
562,104
684,616
268,355
742,790
585,373
418,794
362,274
484,22
615,736
246,876
108,128
148,478
471,96
235,138
752,760
11,71
782,29
646,183
416,461
739,235
209,66
528,958
333,473
914,164
743,708
243,692
395,261
39,764
